
******************************************************************************
This program contains Ipopt, a library for large-scale nonlinear optimization.
 Ipopt is released as open source code under the Eclipse Public License (EPL).
         For more information visit http://projects.coin-or.org/Ipopt

This version of Ipopt was compiled from source code available at
    https://github.com/IDAES/Ipopt as part of the Institute for the Design of
    Advanced Energy Systems Process Systems Engineering Framework (IDAES PSE
    Framework) Copyright (c) 2018-2019. See https://github.com/IDAES/idaes-pse.

This version of Ipopt was compiled using HSL, a collection of Fortran codes
    for large-scale scientific computation.  All technical papers, sales and
    publicity material resulting from use of the HSL codes within IPOPT must
    contain the following acknowledgement:
        HSL, a collection of Fortran codes for large-scale scientific
        computation. See http://www.hsl.rl.ac.uk.
******************************************************************************

This is Ipopt version 3.13.2, running with linear solver ma27.

Number of nonzeros in equality constraint Jacobian...:      928
Number of nonzeros in inequality constraint Jacobian.:        0
Number of nonzeros in Lagrangian Hessian.............:      806

Total number of variables............................:      403
                     variables with only lower bounds:      124
                variables with lower and upper bounds:      217
                     variables with only upper bounds:        0
Total number of equality constraints.................:      402
Total number of inequality constraints...............:        0
        inequality constraints with only lower bounds:        0
   inequality constraints with lower and upper bounds:        0
        inequality constraints with only upper bounds:        0

iter    objective    inf_pr   inf_du lg(mu)  ||d||  lg(rg) alpha_du alpha_pr  ls
   0  0.0000000e+00 1.17e+00 1.11e-16  -1.0 0.00e+00    -  0.00e+00 0.00e+00   0
   1  1.1850034e-01 1.05e+00 7.40e+04  -1.0 1.99e+05    -  2.82e-01 1.09e-01h  1
   2  1.5439969e-01 1.04e+00 7.44e+04  -1.0 2.34e+05    -  4.84e-01 1.64e-02h  1
   3  1.7860427e+01 3.27e-01 8.10e+04  -1.0 2.33e+05    -  4.89e-01 9.90e-01h  1
   4  2.3011605e+01 4.66e-02 1.94e+03  -1.0 3.42e+04    -  7.65e-01 9.90e-01h  1
   5  2.3156629e+01 1.51e-03 6.34e+02  -1.0 1.39e+03    -  9.85e-01 9.90e-01h  1
   6  2.3165712e+01 1.62e-05 1.82e+01  -1.0 1.14e+02    -  9.90e-01 9.90e-01h  1
   7  2.3309186e+01 7.18e-05 1.18e+04  -1.0 2.18e+03    -  9.90e-01 9.90e-01H  1
   8  2.3160804e+01 2.26e-03 7.40e+07  -3.8 4.01e+03    -  9.77e-01 5.46e-01f  1
   9  2.3158188e+01 1.79e-06 3.67e+04  -3.8 3.70e+01    -  1.00e+00 1.00e+00h  1
In iteration 9, 31 Slacks too small, adjusting variable bounds
iter    objective    inf_pr   inf_du lg(mu)  ||d||  lg(rg) alpha_du alpha_pr  ls
  10  2.3158175e+01 2.05e-10 3.78e+08  -3.8 1.89e-01    -  1.00e+00 1.00e+00h  1
  11  2.3158175e+01 3.76e-12 2.37e-04  -3.8 1.86e-04    -  1.00e+00 1.00e+00h  1
  12  2.3158024e+01 6.67e-12 1.27e+06  -9.0 2.23e+00    -  1.00e+00 9.99e-01F  1
  13  2.3158024e+01 2.55e-12 2.75e-10  -9.0 1.34e-05    -  1.00e+00 1.00e+00h  1

Number of Iterations....: 13

                                   (scaled)                 (unscaled)
Objective...............:   2.3158024338462397e+01    2.3158024338462397e+01
Dual infeasibility......:   2.7466739993542433e-10    2.7466739993542433e-10
Constraint violation....:   2.5495161537492095e-12    2.5495161537492095e-12
Complementarity.........:   9.0909103381834941e-10    9.0909103381834941e-10
Overall NLP error.......:   1.6050909424272574e-10    9.0909103381834941e-10


Number of objective function evaluations             = 19
Number of objective gradient evaluations             = 14
Number of equality constraint evaluations            = 19
Number of inequality constraint evaluations          = 0
Number of equality constraint Jacobian evaluations   = 14
Number of inequality constraint Jacobian evaluations = 0
Number of Lagrangian Hessian evaluations             = 13
Total CPU secs in IPOPT (w/o function evaluations)   =      0.026
Total CPU secs in NLP function evaluations           =      0.253

EXIT: Optimal Solution Found.
